
# 1000 iterations
[117  79  83  91  82  88 102  99 100 169 106 105 172  85  69  73  77  78
  76  74  94  92 168 165 107 164 162 161 184 187 186 198 199 175 157 119
 120 155 132  28  34  30  20 126 125  32  36  38  45  46  48  51  50  54
  61  62  43  55  37  52  49  35  41  53  56  86 114 111 110 109 167 171
 170 183 151 180 182 160 158 152 122 179 185 163 166 108  95  80  98  93
  81  75  96  97  90 103 173 177 178 136 138 137 265 142 140 264 270  15
  26 154 121 150 141 204 206 253 254 257   4 262 147 146 144 145 176 131
 139 266 134  19  22  23  25 127  27  14  12  13 275  11   8   9   7 277
 276 248 255 228 252 208 210 232 256   3   1   5   6  10 271 273 274 243
 244 245 231 226 233 234 225 222 219 221 215 229 237 239 240 247 227 214
 211 212 213 203 143 193 191 190 195 194 192 188 189 200 197 201 196 202
 218 224 235 241 280 272  17 130  29  33 124  47  40  39  42  67  70  66
  63  58  44  57  68  72  71  64  84 101 104 113 115 112  89  87  65 116
 181 174  60 118  59 159 156 153 149 205 207 250 279 259 258 261   2 242
 230 251 249 246 238 236 223 217 220 216 209 263 278 260  16  31 123 128
 129  21 133  18  24 135 268 269 267 148]
7628

# 2000 iterations
[157 119 120 121 122 155 154  20 126 125  32  36  35  38  49  52  37  53
  56  44  59  57  68  58  63  66  72  71  85  83  81  82  88 108  80  94
  95  96  97  98  93  91  92 103 104 109 110 111 112  89 107 174 175 164
 162 161 184 187 186 183 199 198 145 144 143 147 146 193 191 190 195 194
 192 188 189 185 163 165 166 168 172 167 171 170 105 173 106 169 100  99
 102 101  90  79  75  77  78  76  74  73  69  70  67  64  65  87  84 113
 116 115 114 117  61  62  86 118  60 158 156 153 149 139 142 140 265 266
 268 135 133 132 131  19  22  23  24  18  16 274 279 278 260 261 262 205
 204 141 150 152 151 181 179 176 177 178 180 182 160 159 123 128 129  21
 130 127  30  34 124  43  42  41  45  46  55  54  50  51  48  47  40  39
  31  33  29  28  27  26  25  17 271 273 272  10  11   8   9   7   6   5
   1   3 280   2 242 241 243 244 247 246 245 240 239 237 236 235 233 234
 225 224 218 216 215 217 220 221 219 222 223 226 228 229 238 231 232 227
 214 211 212 213 200 197 196 201 202 203 206 208 252 253 254 257 258 259
 263 209 207 210 251 230 250 249 256 255 248   4 277 276 275  13  12  14
  15 270 134 136 269 264 267 137 138 148]
4557

# 3000 iterations
[149 139 142 150 152 151 178 177 176 181 179 180 182 160 159 158 157 119
 156 153 120 121 122 155 154  21  20 128 129 130 127  30 124 123  60  61
  62 118 117 116 115 114 113  87  84  86  65  66  72  73  74  76  75  77
  78  79  90  91  92 103 104 105 107 106 173 174 175 183 184 187 189 188
 190 193 145 144 143 147 146 199 198 200 203 204 205 206 208 207 210 209
 230 251 250 249 248 256 255 252 253 254 257 258 259 278 279   4 277 276
 275 274 260 261 262 263 264 136 269 134 270  16  18  17  14  15 271 272
 273  13  12  11  10   8   9   7   6   5   1   3 280   2 242 241 243 244
 247 246 245 240 239 231 238 237 236 235 234 225 224 223 222 219 221 220
 217 216 215 218 226 227 233 232 229 228 214 211 212 213 202 201 196 197
 195 194 192 191 186 185 161 162 163 164 165 166 168 167 172 171 170 169
 100 102 101  99  98  93  97  96  95  94  80  89 110 111 112 109 108  81
  82  88  83  85  71  70  69  67  64  63  58  68  57  59  44  56  43  42
  41  45  46  55  54  53  49  50  51  52  48  47  40  39  38  37  35  36
  34  33  32  31 125 126  29  28  27  26  25  22  23  24  19 131 132 133
 135 268 265 266 140 141 267 137 138 148]
3427

# 4000 iterations
[267 137 138 150 178 151 152 177 176 181 179 180 182 160 159 158 157 119
 156 153 120 121 122 155 154 129 130  20  21 128 127 126  30 125 124 123
  60  61  62 118 117 116 115 114 113  87  88  83  82  81  79  78  77  75
  76  74  73  72  71  70  69  67  66  85  84  86  65  63  64  68  58  57
  56  44  59  43  42  41  45  46  55  54  53  52  51  50  49  48  47  40
  39  38  37  35  36  34  33  32  31  29  28  27  26  22  25  23  24  19
 131 132 133  18  17 270 135 136 269 134  16  14  15 271 272 273  13  12
  11  10   8   9   7   6   5   1   3 280   2 242 243 241 244 247 245 246
 240 239 231 238 237 236 235 234 225 224 223 222 219 221 220 217 216 215
 218 226 227 233 232 229 228 214 211 212 213 202 201 196 197 195 194 192
 191 190 188 189 187 161 162 163 164 165 166 167 168 171 172 170 169 100
 102 101  99  98  93  97  96  95  94  80 109 108 110 111 112  89  90  91
  92 103 104 105 107 106 173 174 175 183 184 185 186 193 198 199 145 146
 147 149 139 142 143 144 200 203 204 205 206 208 207 210 209 230 251 250
 248 249 256 255 252 253 254 257 258 259 278 279   4 277 276 275 274 260
 261 262 263 264 268 265 266 140 141 148]
3162

# 5000 iterations
[265 266 140 139 138 137 267 268 264 263 262 261 260 274 275 276 277   4
 279 278 259 258 257 254 253 252 255 256 249 248 250 251 230 209 210 207
 208 206 205 204 213 212 211 214 216 217 220 221 219 222 223 224 225 218
 215 226 227 233 232 229 228 234 235 236 237 238 231 239 240 246 245 247
 244 241 243 242   2 280   3   1   5   6   7   9   8  10  11  12  13 273
 272 271  15  14  16 270 269 136 135 134  17  18 133 132 131  19  24  23
  25  22  26  27  28  29  31  32  33  34  35  36  37  38  39  40  47  48
  49  50  51  52  53  54  55  46  45  41  42  43  59  44  56  57  58  68
  64  63  65  86  84  85  66  67  69  70  71  72  73  74  76  75  77  78
  79  81  82  83  88  87 113 114 115 116 117 118  62  61  60 123 124 125
  30 126 127 128  21  20 130 129 154 155 122 121 120 153 156 119 157 158
 159 160 182 180 179 181 176 177 151 152 178 150 149 147 146 145 199 198
 193 186 185 184 183 175 174 173 106 107 105 104 103  92  91  90 109 108
 110 111 112  89  80  94  95  96  97  93  98  99 100 101 102 169 170 172
 171 168 167 166 165 164 163 162 161 187 188 189 190 191 192 194 195 197
 196 201 202 203 200 144 143 142 141 148]
3060

# 6000 iterations
[ 16 273 272 271  15  14  13  12  11  10   8   9   7   6   5   1   3 280
   2 242 243 241 244 247 245 246 240 239 231 238 237 236 235 234 233 232
 229 228 227 226 225 224 223 218 215 219 222 221 220 217 216 214 211 212
 213 204 205 206 208 207 210 209 230 251 250 248 249 256 255 252 253 254
 257 258 259 278 279   4 277 276 275 274 260 261 262 263 264 265 266 140
 139 138 137 267 268 135 136 269 270 134  17  18 133 132 131  19  24  23
  25  22  26  27  28  29  31  32  33  34  35  36  37  38  39  40  47  48
  49  50  51  52  53  54  55  46  45  41  42  43 123 124 125  30 126 127
 128  21  20 130 129 154 155 122 121 120 153 156 119 157 158 159 160 174
 173 106 107 105 104 103  92  91  90 109 108 110 111 112  89  82  83  88
  87 113 114 115 116 117 118  62  61  60  59  44  56  57  58  68  64  63
  65  86  84  85  66  67  69  70  71  72  73  74  76  75  77  78  79  81
  80  94  95  96  97  93  98  99 100 101 102 169 170 172 171 168 167 166
 165 164 163 162 161 175 183 182 180 179 181 176 177 151 152 178 150 149
 147 146 145 199 198 193 186 184 185 187 188 189 190 191 192 194 195 197
 196 201 202 203 200 144 143 142 141 148]
2945

# 7000 iterations
[134 270 269 136 135 268 267 137 138 139 140 266 265 264 263 262 261 260
 274 275 276 277   4 279 278 259 258 257 254 253 252 255 256 249 248 250
 251 230 209 210 207 208 206 205 204 213 212 211 214 216 217 215 218 220
 221 222 219 223 224 225 226 227 228 229 232 233 234 235 236 237 238 231
 246 239 240 245 247 244 241 243 242   2 280   3   1   5   6   7   9   8
  10  11  12  13  14  15 273 272 271  16  17  18 133 132 131  19  24  23
  25  22  26  27  28  29  31  32  33  34  35  36  37  38  39  40  47  48
  49  50  51  52  53  54  55  46  45  41  42  43 123 124 125  30 126 127
 128  21  20 130 129 154 155 122 121 120 153 156 119 157 158 159 160 174
 173 106 107 105 104 103  92  91  90 109 108 110 111 112  89  82  83  88
  87 113 114 115 116 117 118  62  61  60  59  44  56  57  58  68  64  63
  65  86  84  85  66  67  69  70  71  72  73  74  76  75  77  78  79  81
  80  94  95  96  97  93  98  99 100 101 102 169 170 172 171 168 167 166
 165 164 163 162 161 175 183 182 180 179 181 176 177 151 152 178 150 149
 147 146 145 199 198 193 186 184 185 187 188 189 190 191 192 194 195 197
 196 201 202 203 200 144 143 142 141 148]
2919

# 8000 iterations
[134 270 269 135 136 268 267 137 138 139 140 266 265 264 263 262 261 260
 274 275 276 277   4 279 278 259 258 257 254 253 252 255 256 249 248 250
 251 230 209 210 207 208 206 205 204 213 212 211 214 216 217 215 218 220
 221 222 219 223 224 225 226 227 228 229 232 233 234 235 236 237 238 231
 246 239 240 245 247 244 241 243 242   2 280   3   1   5   6   7   9   8
  10  11  12  13  14  15 273 272 271  16  17  18 133 132 131  19  24  23
  25  22  26  27  28  29  31  32  33  34  35  36  37  38  39  40  47  48
  49  50  51  52  53  54  55  46  45  41  42  43 123 124 125  30 126 127
 128  21  20 130 129 154 155 122 121 120 153 156 119 157 158 159 160 174
 173 106 107 105 104 103  92  91  90 109 108 110 111 112  89  82  83  88
  87 113 114 115 116 117 118  62  61  60  59  44  56  57  58  68  64  63
  65  86  84  85  66  67  69  70  71  72  73  74  76  75  77  78  79  81
  80  94  95  96  97  93  98  99 100 101 102 169 170 172 171 168 167 166
 165 164 163 162 161 175 183 182 180 179 181 176 177 151 152 178 150 149
 147 146 145 199 198 193 186 184 185 187 188 189 190 191 192 194 195 197
 196 201 202 203 200 144 143 142 141 148]
2913

# 9000 iterations
[134 270 269 135 136 268 267 137 138 139 140 266 265 264 263 262 261 260
 274 275 276 277   4 279 278 259 258 257 254 253 252 255 256 249 248 250
 251 230 209 210 207 208 206 205 204 213 212 211 214 216 217 215 218 220
 221 222 219 223 224 225 226 227 228 229 232 233 234 235 236 237 238 231
 246 239 240 245 247 244 241 243 242   2 280   3   1   5   6   7   9   8
  10  11  12  13  14  15 273 272 271  16  17  18 133 132 131  19  24  23
  25  22  26  27  28  29  31  32  33  34  35  36  37  38  39  40  47  48
  49  50  51  52  53  54  55  46  45  41  42  43 123 124 125  30 126 127
 128  21  20 130 129 154 155 122 121 120 153 156 119 157 158 159 160 175
 161 162 174 173 106 107 105 104 103  92  91  90 109 108 110 111 112  89
  82  83  88  87 113 114 115 116 117 118  62  61  60  59  44  56  57  58
  68  64  63  65  86  84  85  66  67  69  70  71  72  73  74  76  75  77
  78  79  81  80  94  95  96  97  93  98  99 100 101 102 169 170 172 171
 168 167 166 165 164 163 183 182 181 180 179 176 177 151 152 178 150 149
 147 146 145 199 198 193 186 184 185 187 188 189 190 191 192 194 195 197
 196 201 202 203 200 144 143 142 141 148]
2905

# 10000 iterations
[134 270 269 135 136 268 267 137 138 139 140 266 265 264 263 262 261 260
 274 275 276 277   4 279 278 259 258 257 254 253 252 255 256 249 248 250
 251 230 209 210 207 208 206 205 204 213 212 211 214 216 217 215 218 220
 221 222 219 223 224 225 226 227 228 229 232 233 234 235 236 237 238 231
 246 239 240 245 247 244 241 243 242   2 280   3   1   5   6   7   9   8
  10  11  12  13  14  15 273 272 271  16  17  18 133 132 131  19  24  23
  25  22  26  27  28  29  31  32  33  34  35  36  37  38  39  40  47  48
  49  50  51  52  53  54  55  46  45  41  42  43 123 124 125  30 126 127
 128  21  20 130 129 154 155 122 121 120 153 156 119 157 158 159 160 175
 161 162 174 173 106 107 105 104 103  92  91  90 109 108 110 111 112  89
  82  83  88  87 113 114 115 116 117 118  62  61  60  59  44  56  57  58
  68  64  63  65  86  84  85  66  67  69  70  71  72  73  74  76  75  77
  78  79  81  80  94  95  96  97  93  98  99 100 101 102 169 170 172 171
 168 167 166 165 164 163 184 183 182 181 180 179 176 177 151 152 178 150
 149 147 146 145 199 198 193 186 185 187 188 189 190 191 192 194 195 197
 196 201 202 203 200 144 143 142 141 148]
2895
